17,6	0,0	11,8	12,8	0,0	0,0	0,0	0,0	0,0	15,4
17,7	9,2	0,0	8,4	11,1	0,0	0,0	13,0	0,0	0,0
0,0	0,0	6,3	0,0	16,7	11,7	0,0	0,0	13,0	0,0
11,5	0,0	19,5	0,0	0,0	0,0	6,5	0,0	0,0	0,0
0,0	5,9	0,0	11,4	6,8	0,0	0,0	11,4	0,0	0,0
0,0	15,9	9,6	0,0	10,9	13,3	0,0	0,0	16,1	0,0
0,0	12,3	0,0	9,8	0,0	0,0	9,5	0,0	0,0	12,5
14,0	0,0	7,4	0,0	0,0	0,0	0,0	0,0	0,0	19,7
0,0	14,1	0,0	20,0	11,7	0,0	0,0	15,3	0,0	0,0
0,0	0,0	9,7	0,0	0,0	14,0	5,1	0,0	0,0	8,0
									
2,6	3,1	4,1	4,7	4,3	4,8	2,9	4,5	4,6	4,7
